tsp_instances/TSP50/instance110.tsp
NODE_COORD_SECTION
0 21 7
1 48 68
2 73 135
3 134 64
4 188 54
5 129 124
6 157 101
7 69 137
8 26 98
9 75 56
10 37 196
11 14 118
12 28 171
13 144 99
14 197 80
15 117 139
16 196 150
17 146 90
18 89 144
19 75 88
20 172 126
21 84 58
22 116 127
23 134 75
24 196 198
25 160 60
26 145 124
27 136 5
28 22 178
29 6 101
30 65 89
31 41 68
32 102 168
33 47 154
34 35 166
35 90 73
36 185 140
37 10 163
38 85 54
39 193 37
40 46 135
41 21 82
42 151 112
43 95 134
44 193 140
45 101 120
46 195 194
47 106 164
48 57 57
49 107 89
