tsp_instances/TSP50/instance110.opt.tour
TOUR_SECTION
1
28
40
5
15
26
4
24
18
14
7
43
27
21
37
45
17
47
25
33
48
16
6
23
46
44
19
3
8
41
34
35
13
11
29
38
12
30
9
42
32
2
31
20
50
36
22
39
10
49
-1